12      4       
10      10      16      14      
0       0       0       0       0       2       2       3       
8       0       0       0       2       1       4       
10      0       0       0       9       3       7       9       11      
5       9       0       0       8       1       5       
8       0       1       2       10      3       6       7       11      
4       10      3       5       6       1       8       
5       0       0       7       9       1       10      
6       7       3       8       3       2       9       10      
8       0       10      0       0       1       12      
7       4       0       0       0       1       12      
6       0       0       9       0       1       12      
0       0       0       0       0       0       
